Cu48 C1 O1
1.0
   7.6579664402503100    0.0000000000000000    0.0000000000000005
   0.0000000000000010    6.2527034153236478    0.0000000000000004
   0.0000000000000000    0.0000000000000000   29.4755265714909065
Cu C O
48 1 1
direct
   0.3333333333333335    0.7583333333333325    0.6125000000000003 Cu
   0.6666666666666667    0.7583333333333325    0.6125000000000002 Cu
   0.0000000000000002    0.7583333333333325    0.6125000000000002 Cu
   0.3333333333333335    0.0916666666666657    0.6625000000000003 Cu
   0.6666666666666669    0.0916666666666657    0.6625000000000003 Cu
   0.0000000000000000    0.0916666666666657    0.6625000000000003 Cu
   0.1666666666666670    0.4249999999999990    0.6375000000000002 Cu
   0.5000000000000002    0.4249999999999990    0.6375000000000002 Cu
   0.8333333333333335    0.4249999999999990    0.6375000000000002 Cu
   0.1666666666666668    0.7583333333333322    0.6875000000000002 Cu
   0.5000000000000001    0.7583333333333322    0.6875000000000001 Cu
   0.8333333333333335    0.7583333333333322    0.6875000000000001 Cu
   0.0000000000000002    0.0916666666666659    0.5125000000000001 Cu
   0.3333333333333335    0.0916666666666659    0.5125000000000001 Cu
   0.6666666666666669    0.0916666666666659    0.5125000000000001 Cu
   0.0000000000000002    0.4249999999999993    0.5625000000000002 Cu
   0.3333333333333335    0.4249999999999993    0.5625000000000002 Cu
   0.6666666666666667    0.4249999999999993    0.5625000000000002 Cu
   0.1666666666666668    0.7583333333333325    0.5375000000000001 Cu
   0.5000000000000001    0.7583333333333325    0.5375000000000001 Cu
   0.8333333333333335    0.7583333333333325    0.5375000000000001 Cu
   0.1666666666666669    0.0916666666666657    0.5875000000000001 Cu
   0.5000000000000002    0.0916666666666657    0.5875000000000001 Cu
   0.8333333333333336    0.0916666666666657    0.5875000000000001 Cu
   0.3333333333333332    0.4249999999999993    0.4125000000000003 Cu
   0.6666666666666665    0.4249999999999993    0.4125000000000003 Cu
   0.9999999999999998    0.4249999999999993    0.4125000000000003 Cu
   0.0000000000000001    0.7583333333333327    0.4625000000000001 Cu
   0.3333333333333334    0.7583333333333327    0.4625000000000001 Cu
   0.6666666666666667    0.7583333333333327    0.4625000000000001 Cu
   0.1666666666666668    0.0916666666666661    0.4375000000000002 Cu
   0.5000000000000001    0.0916666666666661    0.4375000000000002 Cu
   0.8333333333333335    0.0916666666666661    0.4375000000000002 Cu
   0.1666666666666668    0.4249999999999991    0.4875000000000002 Cu
   0.5000000000000000    0.4249999999999991    0.4875000000000002 Cu
   0.8333333333333334    0.4249999999999991    0.4875000000000002 Cu
   0.0000000000000001    0.7583333333333330    0.3125000000000001 Cu
   0.3333333333333334    0.7583333333333330    0.3125000000000001 Cu
   0.6666666666666667    0.7583333333333330    0.3125000000000001 Cu
   0.0000000000000001    0.0916666666666662    0.3625000000000000 Cu
   0.3333333333333334    0.0916666666666662    0.3625000000000000 Cu
   0.6666666666666667    0.0916666666666662    0.3625000000000000 Cu
   0.1666666666666666    0.4249999999999996    0.3375000000000000 Cu
   0.4999999999999999    0.4249999999999996    0.3375000000000000 Cu
   0.8333333333333331    0.4249999999999996    0.3375000000000000 Cu
   0.1666666666666667    0.7583333333333331    0.3875000000000001 Cu
   0.5000000000000000    0.7583333333333331    0.3875000000000001 Cu
   0.8333333333333334    0.7583333333333331    0.3875000000000001 Cu
   0.5000000000000002    0.2027777777777769    0.7252639338524779 C
   0.5000000000000002    0.2027777777777769    0.7636008231785858 O
