Cu
 1.0000000000000000
    10.2106219203337467    0.0000000000000000    0.0000000000000006
     2.5526554800834376    6.2527034153236460    0.0000000000000005
     0.0000000000000000    0.0000000000000000   32.4230792286400060
 Cu 
  48
Selective dynamics
Cartesian
 12.1575077228213360  5.2873278476474095 18.1526471664695848   F   F   F
  4.4995412825710268  5.2873278476474095 18.1526471664695848   F   F   F
  7.0521967626544617  5.2873278476474095 18.1526471664695848   F   F   F
  9.6048522427378931  5.2873278476474095 18.1526471664695848   F   F   F
  1.9468858024875890  3.2030933758728586 19.6264234950441292   T   T   T
  4.4995412825710259  3.2030933758728586 19.6264234950441292   T   T   T
  7.0521967626544582  3.2030933758728586 19.6264234950441292   T   T   T
  9.6048522427378895  3.2030933758728586 19.6264234950441292   T   T   T
  3.2232135425293125  1.1188589040983039 18.8895353307568570   T   T   T
  5.7758690226127420  1.1188589040983039 18.8895353307568570   T   T   T
  8.3285245026961743  1.1188589040983039 18.8895353307568570   T   T   T
  0.6705580624458680  1.1188589040983039 18.8895353307568570   T   T   T
  3.2232135425293134  5.2873278476474104 20.3633116593314014   T   T   T
  5.7758690226127438  5.2873278476474104 20.3633116593314014   T   T   T
  8.3285245026961743  5.2873278476474104 20.3633116593314014   T   T   T
 10.8811799827796101  5.2873278476474104 20.3633116593314014   T   T   T
  1.9468858024875895  3.2030933758728595 15.2050945093204959   F   F   F
  4.4995412825710250  3.2030933758728595 15.2050945093205012   F   F   F
  7.0521967626544591  3.2030933758728595 15.2050945093205012   F   F   F
  9.6048522427378895  3.2030933758728595 15.2050945093205012   F   F   F
  9.6048522427378895  1.1188589040983050 16.6788708378950368   F   F   F
  1.9468858024875959  1.1188589040983050 16.6788708378950368   F   F   F
  4.4995412825710250  1.1188589040983050 16.6788708378950368   F   F   F
  7.0521967626544591  1.1188589040983050 16.6788708378950368   F   F   F
  3.2232135425293142  5.2873278476474077 15.9419826736077770   F   F   F
  5.7758690226127429  5.2873278476474077 15.9419826736077770   F   F   F
  8.3285245026961761  5.2873278476474077 15.9419826736077770   F   F   F
 10.8811799827796118  5.2873278476474077 15.9419826736077734   F   F   F
  3.2232135425293116  3.2030933758728586 17.4157590021823090   F   F   F
  5.7758690226127420  3.2030933758728586 17.4157590021823090   F   F   F
  8.3285245026961707  3.2030933758728586 17.4157590021823090   F   F   F
 10.8811799827796101  3.2030933758728586 17.4157590021823090   F   F   F
  9.6048522427378895  1.1188589040983039 12.2575418521714141   T   T   T
  1.9468858024875930  1.1188589040983039 12.2575418521714088   T   T   T
  4.4995412825710259  1.1188589040983039 12.2575418521714123   T   T   T
  7.0521967626544599  1.1188589040983039 12.2575418521714141   T   T   T
 12.1575077228213342  5.2873278476474077 13.7313181807459515   T   T   T
  4.4995412825710259  5.2873278476474077 13.7313181807459550   T   T   T
  7.0521967626544608  5.2873278476474077 13.7313181807459550   T   T   T
  9.6048522427378913  5.2873278476474077 13.7313181807459550   T   T   T
  3.2232135425293125  3.2030933758728586 12.9944300164586846   T   T   T
  5.7758690226127429  3.2030933758728586 12.9944300164586863   T   T   T
  8.3285245026961707  3.2030933758728586 12.9944300164586863   T   T   T
 10.8811799827796118  3.2030933758728586 12.9944300164586863   T   T   T
  0.6705580624458709  1.1188589040983050 14.4682063450332272   F   F   F
  3.2232135425293138  1.1188589040983050 14.4682063450332254   F   F   F
  5.7758690226127429  1.1188589040983050 14.4682063450332290   F   F   F
  8.3285245026961743  1.1188589040983050 14.4682063450332290   F   F   F
