Cu48 C3 O3
1.0
  10.2106219203337467    0.0000000000000000    0.0000000000000006
   2.5526554800834376    6.2527034153236460    0.0000000000000005
   0.0000000000000000    0.0000000000000000   32.4230792286400060
Cu C O C O
48 2 2 1 1
Selective dynamics
direct
   0.9792709245246910    0.8456066914495948    0.5598680815742806 F F F Cu
   0.2292709245246910    0.8456066914495948    0.5598680815742806 F F F Cu
   0.4792709245246909    0.8456066914495948    0.5598680815742806 F F F Cu
   0.7292709245246903    0.8456066914495948    0.5598680815742806 F F F Cu
   0.0626042578580244    0.5122733581162611    0.6053226270288260 T T T Cu
   0.3126042578580244    0.5122733581162611    0.6053226270288260 T T T Cu
   0.5626042578580239    0.5122733581162611    0.6053226270288260 T T T Cu
   0.8126042578580235    0.5122733581162611    0.6053226270288260 T T T Cu
   0.2709375911913585    0.1789400247829268    0.5825953543015533 T T T Cu
   0.5209375911913577    0.1789400247829268    0.5825953543015533 T T T Cu
   0.7709375911913573    0.1789400247829268    0.5825953543015533 T T T Cu
   0.0209375911913577    0.1789400247829268    0.5825953543015533 T T T Cu
   0.1042709245246915    0.8456066914495949    0.6280498997560987 T T T Cu
   0.3542709245246909    0.8456066914495949    0.6280498997560987 T T T Cu
   0.6042709245246902    0.8456066914495949    0.6280498997560987 T T T Cu
   0.8542709245246901    0.8456066914495949    0.6280498997560987 T T T Cu
   0.0626042578580244    0.5122733581162612    0.4689589906651898 F F F Cu
   0.3126042578580243    0.5122733581162612    0.4689589906651899 F F F Cu
   0.5626042578580240    0.5122733581162612    0.4689589906651899 F F F Cu
   0.8126042578580235    0.5122733581162612    0.4689589906651899 F F F Cu
   0.8959375911913570    0.1789400247829269    0.5144135361197351 F F F Cu
   0.1459375911913586    0.1789400247829269    0.5144135361197351 F F F Cu
   0.3959375911913579    0.1789400247829269    0.5144135361197351 F F F Cu
   0.6459375911913575    0.1789400247829269    0.5144135361197351 F F F Cu
   0.1042709245246917    0.8456066914495944    0.4916862633924627 F F F Cu
   0.3542709245246909    0.8456066914495944    0.4916862633924627 F F F Cu
   0.6042709245246906    0.8456066914495944    0.4916862633924627 F F F Cu
   0.8542709245246904    0.8456066914495944    0.4916862633924626 F F F Cu
   0.1876042578580248    0.5122733581162611    0.5371408088470078 F F F Cu
   0.4376042578580241    0.5122733581162611    0.5371408088470078 F F F Cu
   0.6876042578580234    0.5122733581162611    0.5371408088470078 F F F Cu
   0.9376042578580236    0.5122733581162611    0.5371408088470078 F F F Cu
   0.8959375911913571    0.1789400247829268    0.3780498997560991 T T T Cu
   0.1459375911913584    0.1789400247829268    0.3780498997560990 T T T Cu
   0.3959375911913580    0.1789400247829268    0.3780498997560991 T T T Cu
   0.6459375911913577    0.1789400247829268    0.3780498997560991 T T T Cu
   0.9792709245246909    0.8456066914495944    0.4235044452106443 T T T Cu
   0.2292709245246910    0.8456066914495944    0.4235044452106444 T T T Cu
   0.4792709245246909    0.8456066914495944    0.4235044452106444 T T T Cu
   0.7292709245246902    0.8456066914495944    0.4235044452106444 T T T Cu
   0.1876042578580249    0.5122733581162611    0.4007771724833718 T T T Cu
   0.4376042578580243    0.5122733581162611    0.4007771724833718 T T T Cu
   0.6876042578580234    0.5122733581162611    0.4007771724833718 T T T Cu
   0.9376042578580238    0.5122733581162611    0.4007771724833718 T T T Cu
   0.0209375911913580    0.1789400247829269    0.4462317179379172 F F F Cu
   0.2709375911913586    0.1789400247829269    0.4462317179379171 F F F Cu
   0.5209375911913577    0.1789400247829269    0.4462317179379172 F F F Cu
   0.7709375911913572    0.1789400247829269    0.4462317179379172 F F F Cu
   0.1042709245246915    0.8456066914495949    0.6588921276934341 T T T C
   0.8957290754753086    0.1543933085504051    0.3411078723065660 T T T C
   0.8595326329829044    0.2991790785200216    0.3202505110033231 T T T O
   0.1042709245246915    0.8456066914495949    0.6937438452626231 T T T O
   0.8957290754753086    0.1543933085504051    0.3411078723065660 T T T C
   0.8595326329829044    0.2991790785200216    0.3202505110033231 T T T O
